(set-info :source |printed by MathSAT|)
(declare-fun |.x{78}| () Int)
(declare-fun |.y{6}| () Int)
(declare-fun |.x{75}| () Int)
(declare-fun |.y{7}| () Int)
(declare-fun |.x{76}| () (Array Int Int))
(declare-fun |.y{8}| () (Array Int Int))
(declare-fun |.x{79}| () Int)
(declare-fun |.y{9}| () Int)
(declare-fun |.x{80}| () (Array Int Int))
(declare-fun |.y{10}| () (Array Int Int))
(declare-fun |.loc{3}| () Bool)
(declare-fun |.loc{5}| () Bool)
(declare-fun |.loc{4}| () Bool)
(declare-fun |.loc{6}| () Bool)
(declare-fun |.x{81}| () Int)
(declare-fun |.x{77}| () Int)
(define-fun .def_18 () Bool (! |.loc{3}| :next |.loc{5}|))
(define-fun .def_51 () Bool (not .def_18))
(define-fun .def_20 () Bool (! |.loc{4}| :next |.loc{6}|))
(define-fun .def_23 () Bool (not .def_20))
(define-fun .def_121 () Bool (! (and .def_23 .def_51) :init true))
(define-fun .def_12 () (Array Int Int) (! |.x{76}| :next |.y{8}|))
(define-fun .def_86 () Int (select .def_12 |.x{77}|))
(define-fun .def_16 () (Array Int Int) (! |.x{80}| :next |.y{10}|))
(define-fun .def_85 () Int (select .def_16 |.x{81}|))
(define-fun .def_87 () Bool (= .def_85 .def_86))
(define-fun .def_114 () Bool (not .def_87))
(define-fun .def_58 () Int (* (- 1) |.x{81}|))
(define-fun .def_14 () Int (! |.x{79}| :next |.y{9}|))
(define-fun .def_59 () Int (+ .def_14 .def_58))
(define-fun .def_8 () Int (! |.x{78}| :next |.y{6}|))
(define-fun .def_60 () Int (+ .def_8 .def_59))
(define-fun .def_61 () Bool (= .def_60 0))
(define-fun .def_30 () Bool (<= 100000 .def_8))
(define-fun .def_31 () Bool (not .def_30))
(define-fun .def_105 () Bool (and .def_31 .def_61))
(define-fun .def_106 () Bool (and .def_20 .def_105))
(define-fun .def_107 () Bool (and .def_51 .def_106))
(define-fun .def_10 () Int (! |.x{75}| :next |.y{7}|))
(define-fun .def_73 () Bool (<= .def_10 0))
(define-fun .def_71 () Bool (<= |.x{77}| 0))
(define-fun .def_72 () Bool (not .def_71))
(define-fun .def_74 () Bool (or .def_72 .def_73))
(define-fun .def_108 () Bool (and .def_74 .def_107))
(define-fun .def_76 () Bool (not .def_73))
(define-fun .def_109 () Bool (and .def_76 .def_108))
(define-fun .def_110 () Bool (and |.loc{5}| .def_109))
(define-fun .def_80 () Bool (<= .def_14 0))
(define-fun .def_78 () Bool (<= |.x{81}| 0))
(define-fun .def_79 () Bool (not .def_78))
(define-fun .def_81 () Bool (or .def_79 .def_80))
(define-fun .def_111 () Bool (and .def_81 .def_110))
(define-fun .def_83 () Bool (not .def_80))
(define-fun .def_112 () Bool (and .def_83 .def_111))
(define-fun .def_89 () Int (* (- 1) |.x{77}|))
(define-fun .def_92 () Int (+ .def_10 .def_89))
(define-fun .def_93 () Int (+ .def_8 .def_92))
(define-fun .def_94 () Bool (= .def_93 0))
(define-fun .def_113 () Bool (and .def_94 .def_112))
(define-fun .def_115 () Bool (and .def_113 .def_114))
(define-fun .def_45 () Bool (= |.y{6}| 0))
(define-fun .def_46 () Bool (and .def_23 .def_45))
(define-fun .def_22 () Bool (= .def_10 |.y{7}|))
(define-fun .def_98 () Bool (and .def_22 .def_46))
(define-fun .def_99 () Bool (and .def_30 .def_98))
(define-fun .def_25 () Bool (= .def_12 |.y{8}|))
(define-fun .def_100 () Bool (and .def_25 .def_99))
(define-fun .def_33 () Bool (= .def_14 |.y{9}|))
(define-fun .def_101 () Bool (and .def_33 .def_100))
(define-fun .def_102 () Bool (and .def_18 .def_101))
(define-fun .def_36 () Bool (= .def_16 |.y{10}|))
(define-fun .def_103 () Bool (and .def_36 .def_102))
(define-fun .def_96 () Bool (not |.loc{5}|))
(define-fun .def_104 () Bool (and .def_96 .def_103))
(define-fun .def_116 () Bool (or .def_104 .def_115))
(define-fun .def_62 () Bool (and .def_22 .def_61))
(define-fun .def_63 () Bool (and .def_25 .def_62))
(define-fun .def_64 () Bool (and .def_31 .def_63))
(define-fun .def_65 () Bool (and .def_33 .def_64))
(define-fun .def_66 () Bool (and .def_36 .def_65))
(define-fun .def_67 () Bool (and .def_20 .def_66))
(define-fun .def_68 () Bool (and .def_51 .def_67))
(define-fun .def_39 () Int (* (- 1) |.y{6}|))
(define-fun .def_40 () Int (+ .def_8 .def_39))
(define-fun .def_41 () Bool (= .def_40 (- 1)))
(define-fun .def_69 () Bool (and .def_41 .def_68))
(define-fun .def_75 () Bool (and .def_69 .def_74))
(define-fun .def_77 () Bool (and .def_75 .def_76))
(define-fun .def_82 () Bool (and .def_77 .def_81))
(define-fun .def_84 () Bool (and .def_82 .def_83))
(define-fun .def_88 () Bool (and .def_84 .def_87))
(define-fun .def_95 () Bool (and .def_88 .def_94))
(define-fun .def_97 () Bool (and .def_95 .def_96))
(define-fun .def_117 () Bool (or .def_97 .def_116))
(define-fun .def_118 () Bool (and |.loc{6}| .def_117))
(define-fun .def_53 () Bool (<= |.y{7}| 0))
(define-fun .def_54 () Bool (not .def_53))
(define-fun .def_48 () Bool (<= |.y{9}| 0))
(define-fun .def_49 () Bool (not .def_48))
(define-fun .def_27 () Bool (not |.loc{6}|))
(define-fun .def_47 () Bool (and .def_27 .def_46))
(define-fun .def_50 () Bool (and .def_47 .def_49))
(define-fun .def_52 () Bool (and .def_50 .def_51))
(define-fun .def_55 () Bool (and .def_52 .def_54))
(define-fun .def_56 () Bool (and |.loc{5}| .def_55))
(define-fun .def_119 () Bool (or .def_56 .def_118))
(define-fun .def_24 () Bool (and .def_22 .def_23))
(define-fun .def_26 () Bool (and .def_24 .def_25))
(define-fun .def_28 () Bool (and .def_26 .def_27))
(define-fun .def_32 () Bool (and .def_28 .def_31))
(define-fun .def_34 () Bool (and .def_32 .def_33))
(define-fun .def_35 () Bool (and .def_18 .def_34))
(define-fun .def_37 () Bool (and .def_35 .def_36))
(define-fun .def_42 () Bool (and .def_37 .def_41))
(define-fun .def_43 () Bool (and |.loc{5}| .def_42))
(define-fun .def_120 () Bool (! (or .def_43 .def_119) :trans true))
(define-fun .def_122 () Bool (and .def_18 .def_20))
(define-fun .def_123 () Bool (! (not .def_122) :invar-property 0))
(assert true)
